10	5
0	2	1	2
1	5	7	10	6	9	8
2	3	8	9	5
3	1	4
4	2	7	10
5	2	6	3
6	1	11
7	1	11
8	1	11
9	1	11
10	1	11
11	0
0	0	0	0	0	0	0
1	10	1	4	4	5	5
2	1	4	3	3	1	1
3	2	1	5	1	4	5
4	10	5	5	4	3	1
5	5	1	3	4	1	5
6	3	3	2	4	2	5
7	2	5	1	3	1	4
8	4	1	2	1	1	2
9	5	4	3	5	4	2
10	10	1	3	3	3	2
11	0	0	0	0	0	0
7	9	8	7	8
